20	5
0	8	7	2	3	6	4	8	1	5
1	6	11	18	15	14	16	19
2	9	14	13	19	20	18	12	11	15	17
3	10	17	12	11	15	16	19	13	18	20	14
4	9	13	17	18	20	15	11	14	16	19
5	3	10	20	16
6	8	18	13	12	11	15	20	19	17
7	10	19	18	12	20	17	15	11	13	16	14
8	9	17	18	20	11	15	14	19	12	13
9	4	12	11	18	13
10	4	14	15	9	19
11	1	21
12	1	21
13	1	21
14	1	21
15	1	21
16	1	21
17	1	21
18	1	21
19	1	21
20	1	21
21	0
0	0	0	0	0	0	0
1	9	2	2	2	3	3
2	6	2	3	5	4	5
3	2	1	2	5	3	3
4	10	4	4	5	4	2
5	7	5	3	4	4	2
6	4	1	5	5	3	4
7	1	3	3	2	4	5
8	8	4	4	3	1	1
9	7	2	5	3	5	3
10	9	4	4	3	1	2
11	1	1	5	2	2	3
12	6	2	3	5	4	2
13	3	3	3	3	2	4
14	6	2	2	5	1	5
15	6	2	2	2	5	5
16	10	4	1	1	3	4
17	4	1	3	4	2	3
18	1	3	4	1	2	2
19	8	1	5	4	1	3
20	7	2	1	4	5	3
21	0	0	0	0	0	0
9	10	12	10	10
